56
735 767 1005 731 867 728 933 809 885 779 943 764 828 879 1024 619 959 854 854 1055 819 837 899 856 852 808 833 1023 946 684 963 747 896 808 1053 888 889 874 888 863 946 658 824 943 830 984 787 743 724 994 871 821 866 935 899 883 
12361
387 408 103 272 697 380 362 790 808 131 212 369 853 79 579 198 435 193 402 47 16 742 377 920 624 748 709 682 124 229 159 101 671 412 890 296 986 572 537 850 590 928 481 64 543 104 465 947 792 870 214 565 128 360 973 224